3 
4  27 52 
5  12 22 30 38 46 53 
6  00 07 14 22 32 40 47 55 
7  02 10 17 25 32 40 47 55 
8  02 10 17 25 32 40 47 55 
9  02 10 17 25 32 40 47 55 
10  02 10 17 25 32 40 47 55 
11  02 10 17 25 32 40 47 55 
12  02 10 17 25 32 40 47 55 
13  02 10 17 25 32 40 47 55 
14  02 10 17 25 32 40 47 55 
15  02 10 17 25 32 40 47 55 
16  02 10 17 25 32 40 47 55 
17  02 10 17 25 32 40 47 55 
18  02 10 17 25 32 40 47 55 
19  02 10 17 25 32 40 49 
20  04 19 34 47 
21  02 17 32 47 
22  02 17 32 47 
23  03 
0 
